750
100 100
1 70 839
2 70 916
3 70 547
4 70 989
5 70 512
6 70 625
7 69 800
8 69 828
9 69 212
10 69 451
11 69 205
12 69 879
13 69 439
14 69 426
15 69 262
16 69 624
17 69 480
18 69 74
19 69 726
20 69 590
21 69 297
22 69 458
23 68 1
24 68 560
25 68 223
26 68 322
27 68 826
28 68 222
29 68 376
30 68 920
31 68 531
32 68 340
33 68 126
34 68 435
35 68 278
36 68 979
37 68 466
38 68 6
39 68 114
40 68 813
41 68 574
42 67 205
43 67 951
44 67 180
45 67 634
46 67 201
47 67 453
48 67 675
49 67 105
50 66 923
51 66 796
52 66 801
53 66 315
54 66 577
55 66 816
56 66 137
57 66 959
58 66 261
59 66 230
60 66 343
61 66 423
62 66 267
63 65 785
64 65 553
65 65 964
66 65 662
67 65 608
68 65 318
69 65 395
70 65 405
71 65 30
72 65 254
73 65 155
74 65 180
75 65 139
76 65 474
77 64 395
78 64 694
79 64 888
80 64 713
81 64 50
82 64 834
83 64 368
84 64 511
85 63 147
86 63 721
87 63 196
88 63 180
89 63 839
90 63 856
91 63 431
92 63 938
93 63 470
94 63 962
95 63 948
96 63 11
97 63 499
98 62 334
99 62 66
100 62 744
101 62 107
102 62 353
103 62 552
104 62 765
105 62 563
106 62 967
107 62 310
108 62 836
109 62 148
110 62 133
111 62 202
112 62 477
113 62 911
114 61 924
115 61 764
116 61 306
117 61 599
118 61 661
119 61 305
120 61 373
121 61 718
122 61 733
123 61 786
124 61 236
125 61 417
126 61 797
127 61 724
128 60 680
129 60 785
130 60 949
131 60 397
132 60 833
133 60 754
134 60 624
135 60 223
136 59 697
137 59 692
138 59 786
139 59 403
140 59 520
141 59 539
142 59 793
143 59 577
144 59 349
145 59 446
146 59 483
147 59 404
148 58 608
149 58 473
150 58 315
151 58 523
152 58 659
153 58 308
154 58 636
155 58 108
156 58 110
157 57 66
158 57 45
159 57 586
160 57 82
161 57 668
162 57 457
163 57 589
164 57 9
165 57 922
166 57 677
167 57 483
168 57 522
169 57 708
170 57 675
171 56 24
172 56 757
173 56 713
174 56 811
175 56 10
176 56 94
177 56 567
178 56 685
179 56 875
180 56 300
181 56 226
182 56 803
183 56 144
184 55 518
185 55 982
186 55 550
187 55 791
188 55 915
189 55 57
190 55 921
191 55 888
192 55 521
193 55 562
194 55 253
195 55 150
196 55 74
197 55 454
198 55 701
199 55 492
200 55 143
201 55 545
202 55 637
203 54 645
204 54 196
205 54 346
206 54 852
207 54 999
208 54 921
209 54 163
210 54 587
211 54 338
212 53 110
213 53 509
214 53 241
215 53 5
216 53 617
217 53 913
218 53 908
219 53 854
220 52 376
221 52 490
222 52 613
223 52 696
224 52 423
225 52 350
226 52 987
227 52 211
228 52 51
229 52 926
230 52 127
231 51 745
232 51 924
233 51 122
234 51 540
235 51 408
236 51 647
237 51 355
238 51 361
239 51 504
240 51 967
241 51 544
242 51 317
243 50 92
244 50 674
245 50 643
246 50 543
247 50 907
248 50 134
249 50 379
250 50 38
251 49 560
252 49 8
253 49 384
254 49 47
255 49 485
256 49 773
257 49 553
258 49 585
259 49 424
260 49 979
261 49 316
262 49 238
263 48 316
264 48 136
265 48 947
266 48 352
267 48 261
268 48 568
269 48 723
270 48 447
271 48 999
272 47 810
273 47 475
274 47 516
275 47 307
276 47 863
277 47 672
278 47 283
279 47 113
280 47 873
281 47 148
282 47 654
283 47 740
284 47 733
285 47 630
286 47 876
287 47 474
288 47 393
289 47 156
290 47 498
291 47 505
292 47 231
293 46 56
294 46 995
295 46 72
296 46 44
297 46 62
298 46 817
299 46 649
300 46 121
301 46 999
302 46 866
303 46 378
304 46 680
305 46 959
306 46 482
307 46 154
308 46 433
309 45 52
310 45 442
311 45 703
312 45 189
313 45 322
314 45 67
315 45 1
316 44 591
317 44 286
318 44 292
319 44 903
320 44 895
321 44 345
322 44 610
323 44 66
324 44 419
325 44 858
326 43 417
327 43 324
328 43 386
329 43 981
330 43 193
331 43 180
332 43 459
333 43 420
334 43 907
335 43 168
336 43 219
337 43 548
338 43 737
339 43 100
340 43 36
341 43 417
342 43 613
343 43 898
344 43 498
345 43 47
346 43 728
347 42 355
348 42 783
349 42 894
350 42 468
351 42 24
352 42 231
353 42 866
354 42 396
355 42 52
356 42 338
357 42 211
358 42 385
359 41 132
360 41 258
361 41 40
362 41 595
363 41 201
364 41 182
365 41 247
366 41 857
367 40 745
368 40 435
369 40 317
370 40 438
371 40 221
372 40 747
373 40 828
374 40 455
375 40 340
376 40 387
377 40 801
378 40 823
379 40 232
380 40 637
381 40 98
382 40 362
383 40 277
384 39 446
385 39 539
386 39 354
387 39 473
388 39 132
389 39 968
390 39 169
391 39 451
392 39 935
393 39 259
394 39 772
395 39 465
396 39 945
397 39 355
398 39 18
399 39 776
400 38 662
401 38 527
402 38 231
403 38 550
404 38 136
405 38 188
406 38 102
407 38 651
408 38 389
409 38 969
410 38 340
411 38 828
412 38 245
413 38 101
414 37 447
415 37 846
416 37 382
417 37 427
418 37 323
419 37 130
420 37 229
421 37 969
422 37 176
423 36 30
424 36 150
425 36 67
426 36 202
427 36 580
428 36 465
429 36 397
430 36 227
431 36 641
432 36 852
433 36 656
434 36 177
435 36 818
436 35 157
437 35 159
438 35 335
439 35 854
440 35 417
441 35 122
442 35 792
443 35 106
444 35 29
445 35 609
446 35 82
447 35 336
448 35 330
449 34 896
450 34 349
451 34 164
452 34 901
453 34 668
454 34 677
455 34 92
456 34 962
457 34 259
458 34 462
459 34 290
460 33 329
461 33 442
462 33 29
463 33 364
464 33 306
465 33 772
466 33 174
467 33 939
468 32 200
469 32 538
470 32 188
471 32 91
472 32 343
473 32 582
474 32 78
475 32 13
476 31 203
477 31 432
478 31 820
479 31 700
480 31 653
481 31 174
482 31 935
483 31 434
484 31 758
485 31 483
486 31 633
487 31 104
488 31 208
489 31 406
490 31 808
491 30 220
492 30 432
493 30 199
494 30 981
495 30 453
496 30 265
497 30 296
498 30 277
499 30 273
500 30 71
501 30 265
502 30 284
503 29 244
504 29 79
505 29 525
506 29 170
507 29 492
508 29 977
509 29 401
510 29 896
511 29 596
512 29 685
513 29 183
514 28 354
515 28 669
516 28 169
517 28 573
518 28 857
519 28 684
520 28 27
521 28 77
522 28 763
523 28 44
524 28 748
525 28 296
526 28 878
527 28 956
528 28 914
529 28 723
530 28 813
531 27 732
532 27 699
533 27 101
534 27 341
535 27 939
536 27 918
537 27 132
538 27 42
539 27 471
540 26 576
541 26 524
542 26 723
543 26 59
544 26 508
545 26 919
546 26 446
547 26 13
548 26 743
549 26 289
550 25 700
551 25 348
552 25 431
553 25 506
554 25 756
555 25 885
556 25 477
557 25 498
558 25 726
559 24 167
560 24 670
561 24 574
562 24 193
563 24 85
564 24 886
565 24 203
566 24 357
567 24 92
568 24 8
569 24 584
570 24 759
571 24 691
572 24 161
573 24 479
574 23 673
575 23 929
576 23 373
577 23 657
578 23 367
579 23 450
580 23 963
581 23 905
582 22 945
583 22 815
584 22 184
585 22 233
586 22 966
587 22 101
588 22 430
589 22 35
590 22 959
591 22 318
592 22 26
593 22 617
594 22 819
595 22 966
596 21 701
597 21 780
598 21 851
599 21 721
600 21 900
601 21 562
602 21 47
603 21 761
604 21 143
605 21 653
606 21 877
607 21 374
608 21 189
609 21 214
610 21 875
611 20 91
612 20 789
613 20 944
614 20 227
615 20 947
616 20 265
617 20 279
618 20 621
619 20 624
620 20 893
621 20 757
622 20 101
623 20 585
624 20 903
625 20 900
626 19 753
627 19 173
628 19 945
629 19 43
630 19 540
631 19 97
632 19 826
633 19 769
634 19 595
635 19 236
636 19 140
637 19 425
638 19 840
639 19 549
640 19 445
641 18 484
642 18 221
643 18 941
644 18 702
645 18 241
646 18 490
647 18 861
648 18 620
649 18 367
650 18 710
651 18 820
652 18 13
653 18 919
654 17 624
655 17 896
656 17 692
657 17 81
658 17 736
659 17 101
660 17 736
661 17 435
662 17 277
663 17 693
664 17 190
665 17 553
666 17 341
667 17 178
668 17 601
669 17 259
670 17 599
671 17 988
672 16 376
673 16 329
674 16 448
675 16 190
676 16 229
677 16 225
678 16 954
679 16 228
680 16 60
681 16 973
682 16 662
683 16 90
684 15 256
685 15 491
686 15 488
687 15 703
688 15 184
689 15 734
690 15 286
691 15 492
692 15 818
693 15 24
694 15 640
695 15 38
696 15 495
697 15 468
698 14 725
699 14 345
700 14 849
701 14 836
702 14 96
703 14 848
704 14 630
705 14 122
706 14 13
707 13 759
708 13 81
709 13 813
710 13 807
711 13 423
712 13 3
713 13 29
714 13 301
715 13 878
716 13 848
717 12 815
718 12 294
719 12 410
720 12 579
721 12 599
722 12 266
723 12 596
724 12 257
725 12 725
726 12 479
727 12 749
728 11 193
729 11 27
730 11 99
731 11 852
732 11 168
733 11 439
734 11 48
735 11 807
736 11 584
737 11 412
738 10 330
739 10 699
740 10 471
741 10 684
742 10 112
743 10 846
744 10 493
745 10 781
746 10 27
747 10 226
748 10 954
749 10 972
750 10 238
